(set-info :Origin "This instance was generated by: BanditFuzz-- an RL fuzzer for SMT solvers" )
(set-info :Author "Joe Scott, Fed Mora, Vijay Ganesh" )
(set-info :Contact "Joe Scott, joseph.scott@uwaterloo.ca")
(set-logic QF_BV)
(declare-const bool_0 Bool)
(declare-const bool_1 Bool)
(declare-const bool_2 Bool)
(declare-const bool_3 Bool)
(declare-const bool_4 Bool)
(declare-const bv_0 (_ BitVec 32))
(declare-const bv_1 (_ BitVec 32))
(declare-const bv_2 (_ BitVec 32))
(declare-const bv_3 (_ BitVec 32))
(declare-const bv_4 (_ BitVec 32))
(assert (bvugt (bvxnor (bvsrem #x61be2aae  bv_1) (bvashr bv_0 bv_3)) (bvand (bvand #x060bb510  #x3ee8cc8d ) (bvnor #xc591e62c  bv_2))))
(assert (bvsle (bvashr (bvsub bv_1 bv_2) (bvsrem bv_0 bv_0)) (bvmul (bvmul #x39d2d3a6  #x0e9dc4af ) (bvlshr bv_3 #xe6d22ad5 ))))
(assert (or (bvuge (bvsmod #xde91dd29  bv_0) (bvlshr bv_1 #x56903963 )) (xor (bvsge bv_3 bv_4) (=> false false))))
(assert (bvule (bvmul (bvnor #x67b7210f  #x4dc7a20a ) (bvlshr bv_1 #xcfc0e204 )) (bvlshr (bvashr bv_0 #xa7b0ed5b ) (bvnand #x28335ded  #x60ba7a9b ))))
(assert (bvugt (bvor (bvashr bv_2 #x58fad6e0 ) (bvnor bv_2 #x783d2079 )) (bvmul (bvashr #x54dee20e  #x9ae3f30c ) (bvnand #x02b66932  bv_3))))
(check-sat)
(exit)
